Instance0
Gap






15.28%
14.99%
14.93%
9.37%
9.37%
9.37%
8.96%
8.67%
8.64%
8.61%
8.04%
CPXPARAM_MIP_Cuts_Disjunctive-MIRCut:Disjunctive 1
CPXPARAM_MIP_Cuts_Disjunctive-MIRCut:MIRCut 8
Instance1
Gap



67.68%
59.02%
57.71%
57.28%
57.19%
CPXPARAM_MIP_Cuts_Disjunctive-MIRCut:Disjunctive 0
CPXPARAM_MIP_Cuts_Disjunctive-MIRCut:MIRCut 7
Instance2
Gap


0.35%
0.35%
0.35%
0
CPXPARAM_MIP_Cuts_Disjunctive-MIRCut:Disjunctive 0
CPXPARAM_MIP_Cuts_Disjunctive-MIRCut:MIRCut 0
Instance3
Gap

0.00%
0
CPXPARAM_MIP_Cuts_Disjunctive-MIRCut:Disjunctive 0
CPXPARAM_MIP_Cuts_Disjunctive-MIRCut:MIRCut 0
Instance4
Gap



5.62%
5.62%
5.62%
5.23%
CPXPARAM_MIP_Cuts_Disjunctive-MIRCut:Disjunctive 0
CPXPARAM_MIP_Cuts_Disjunctive-MIRCut:MIRCut 7
Instance5
Gap



74.62%
69.97%
63.80%
56.52%
56.12%
54.81%
CPXPARAM_MIP_Cuts_Disjunctive-MIRCut:Disjunctive 0
CPXPARAM_MIP_Cuts_Disjunctive-MIRCut:MIRCut 9
Instance6
Gap
111.50%
92.96%
92.96%
92.96%
CPXPARAM_MIP_Cuts_Disjunctive-MIRCut:Disjunctive 0
CPXPARAM_MIP_Cuts_Disjunctive-MIRCut:MIRCut 1
Instance7
Gap

23.59%
23.59%
23.59%
23.59%
11.04%
CPXPARAM_MIP_Cuts_Disjunctive-MIRCut:Disjunctive 0
CPXPARAM_MIP_Cuts_Disjunctive-MIRCut:MIRCut 1
Instance8
Gap



3.05%
3.05%
3.05%
3.00%
2.98%
CPXPARAM_MIP_Cuts_Disjunctive-MIRCut:Disjunctive 0
CPXPARAM_MIP_Cuts_Disjunctive-MIRCut:MIRCut 4
Instance9
Gap







0
CPXPARAM_MIP_Cuts_Disjunctive-MIRCut:Disjunctive 2
CPXPARAM_MIP_Cuts_Disjunctive-MIRCut:MIRCut 9
Instance10
Gap

0.01%
CPXPARAM_MIP_Cuts_Disjunctive-MIRCut:Disjunctive 0
CPXPARAM_MIP_Cuts_Disjunctive-MIRCut:MIRCut 0
Instance11
Gap

0.02%
0.02%
0.02%
0
CPXPARAM_MIP_Cuts_Disjunctive-MIRCut:Disjunctive 0
CPXPARAM_MIP_Cuts_Disjunctive-MIRCut:MIRCut 0
Instance12
Gap









0
CPXPARAM_MIP_Cuts_Disjunctive-MIRCut:Disjunctive 1
CPXPARAM_MIP_Cuts_Disjunctive-MIRCut:MIRCut 10
Instance13
Gap

37.35%
36.13%
33.68%
30.94%
28.08%
25.95%
25.72%
25.41%
CPXPARAM_MIP_Cuts_Disjunctive-MIRCut:Disjunctive 0
CPXPARAM_MIP_Cuts_Disjunctive-MIRCut:MIRCut 10
Instance14
Gap

1.86%
1.86%
1.86%
1.86%
0
CPXPARAM_MIP_Cuts_Disjunctive-MIRCut:Disjunctive 0
CPXPARAM_MIP_Cuts_Disjunctive-MIRCut:MIRCut 1
Instance15
Gap
112.51%
98.57%
98.57%
29.55%
29.55%
29.55%
CPXPARAM_MIP_Cuts_Disjunctive-MIRCut:Disjunctive 0
CPXPARAM_MIP_Cuts_Disjunctive-MIRCut:MIRCut 2
Instance16
Gap



1.66%
1.66%
1.66%
0.10%
CPXPARAM_MIP_Cuts_Disjunctive-MIRCut:Disjunctive 0
CPXPARAM_MIP_Cuts_Disjunctive-MIRCut:MIRCut 2
Instance17
Gap



47.95%
46.05%
42.81%
41.81%
41.80%
41.26%
40.97%
CPXPARAM_MIP_Cuts_Disjunctive-MIRCut:Disjunctive 0
CPXPARAM_MIP_Cuts_Disjunctive-MIRCut:MIRCut 7
Instance18
Gap
110.91%
93.14%
93.14%
0.05%
0.05%
0.05%
0
CPXPARAM_MIP_Cuts_Disjunctive-MIRCut:Disjunctive 0
CPXPARAM_MIP_Cuts_Disjunctive-MIRCut:MIRCut 2
Instance19
Gap
114.31%
97.72%
97.72%
1.26%
1.26%
1.26%
1.26%
1.26%
1.21%
CPXPARAM_MIP_Cuts_Disjunctive-MIRCut:Disjunctive 1
CPXPARAM_MIP_Cuts_Disjunctive-MIRCut:MIRCut 2
Instance20
Gap


0.00%
CPXPARAM_MIP_Cuts_Disjunctive-MIRCut:Disjunctive 0
CPXPARAM_MIP_Cuts_Disjunctive-MIRCut:MIRCut 0
Instance21
Gap



23.11%
16.33%
14.33%
14.33%
14.33%
12.24%
0
CPXPARAM_MIP_Cuts_Disjunctive-MIRCut:Disjunctive 0
CPXPARAM_MIP_Cuts_Disjunctive-MIRCut:MIRCut 5
Instance22
Gap

0.39%
0.39%
0.39%
0.39%
0.36%
0.36%
CPXPARAM_MIP_Cuts_Disjunctive-MIRCut:Disjunctive 0
CPXPARAM_MIP_Cuts_Disjunctive-MIRCut:MIRCut 1
Instance23
Gap

3.15%
3.15%
3.15%
3.15%
0.00%
CPXPARAM_MIP_Cuts_Disjunctive-MIRCut:Disjunctive 0
CPXPARAM_MIP_Cuts_Disjunctive-MIRCut:MIRCut 0
Instance24
Gap

10.00%
9.93%
7.82%
7.82%
7.82%
0
CPXPARAM_MIP_Cuts_Disjunctive-MIRCut:Disjunctive 0
CPXPARAM_MIP_Cuts_Disjunctive-MIRCut:MIRCut 6
Instance25
Gap



0.00%
CPXPARAM_MIP_Cuts_Disjunctive-MIRCut:Disjunctive 0
CPXPARAM_MIP_Cuts_Disjunctive-MIRCut:MIRCut 0
Instance26
Gap
0.00%
CPXPARAM_MIP_Cuts_Disjunctive-MIRCut:Disjunctive 0
CPXPARAM_MIP_Cuts_Disjunctive-MIRCut:MIRCut 0
Instance27
Gap

0.42%
0.42%
0.42%
0.42%
0.42%
CPXPARAM_MIP_Cuts_Disjunctive-MIRCut:Disjunctive 0
CPXPARAM_MIP_Cuts_Disjunctive-MIRCut:MIRCut 1
Instance28
Gap



9.39%
9.39%
9.39%
9.31%
9.29%
9.28%
9.26%
0
CPXPARAM_MIP_Cuts_Disjunctive-MIRCut:Disjunctive 1
CPXPARAM_MIP_Cuts_Disjunctive-MIRCut:MIRCut 5
Instance29
Gap
111.49%
406.57%
82.87%
82.87%
82.87%
60.38%
60.38%
CPXPARAM_MIP_Cuts_Disjunctive-MIRCut:Disjunctive 2
CPXPARAM_MIP_Cuts_Disjunctive-MIRCut:MIRCut 0
Instance30
Gap
120.75%
227.70%
17.33%
0.85%
0.85%
0.85%
0.85%
CPXPARAM_MIP_Cuts_Disjunctive-MIRCut:Disjunctive 0
CPXPARAM_MIP_Cuts_Disjunctive-MIRCut:MIRCut 0
Instance31
Gap

5.20%
5.20%
5.20%
5.20%
1.76%
CPXPARAM_MIP_Cuts_Disjunctive-MIRCut:Disjunctive 0
CPXPARAM_MIP_Cuts_Disjunctive-MIRCut:MIRCut 1
Instance32
Gap





4.40%
4.40%
4.40%
0
CPXPARAM_MIP_Cuts_Disjunctive-MIRCut:Disjunctive 0
CPXPARAM_MIP_Cuts_Disjunctive-MIRCut:MIRCut 7
Instance33
Gap



36.97%
0
CPXPARAM_MIP_Cuts_Disjunctive-MIRCut:Disjunctive 0
CPXPARAM_MIP_Cuts_Disjunctive-MIRCut:MIRCut 4
Instance34
Gap

0.14%
0
CPXPARAM_MIP_Cuts_Disjunctive-MIRCut:Disjunctive 0
CPXPARAM_MIP_Cuts_Disjunctive-MIRCut:MIRCut 0
Instance35
Gap

2.41%
2.41%
2.41%
0.00%
CPXPARAM_MIP_Cuts_Disjunctive-MIRCut:Disjunctive 0
CPXPARAM_MIP_Cuts_Disjunctive-MIRCut:MIRCut 0
Instance36
Gap



7.01%
7.01%
7.01%
6.98%
0
CPXPARAM_MIP_Cuts_Disjunctive-MIRCut:Disjunctive 0
CPXPARAM_MIP_Cuts_Disjunctive-MIRCut:MIRCut 5
Instance37
Gap







111.60%
109.24%
CPXPARAM_MIP_Cuts_Disjunctive-MIRCut:Disjunctive 2
CPXPARAM_MIP_Cuts_Disjunctive-MIRCut:MIRCut 6
Instance38
Gap

0.21%
0.21%
0.21%
0.21%
0
CPXPARAM_MIP_Cuts_Disjunctive-MIRCut:Disjunctive 0
CPXPARAM_MIP_Cuts_Disjunctive-MIRCut:MIRCut 1
Instance39
Gap


0.50%
0.50%
0.50%
0
CPXPARAM_MIP_Cuts_Disjunctive-MIRCut:Disjunctive 0
CPXPARAM_MIP_Cuts_Disjunctive-MIRCut:MIRCut 0
